; taskiq :: corpus-study/repo_src/taskiq/taskiq/api/receiver.py :: EVENT 'run_receiver_task::finish_event' :: naive encoding (verdict: unsat)
; Generated by snf-pipeline (encoder.py) -- run with any
; SMT-LIB2-compliant solver, e.g. `z3 taskiq__corpus-study_repo_src_taskiq_taskiq_api_receiver.py__run_receiver_task__finish_event__naive.smt2`
; benchmark generated from python API
(set-info :status unknown)
(assert
 false)
(check-sat)
